(set-logic HORN)
(declare-fun !inv0 (Int (Array Int Int) (Array Int Int) (Array Int Int) Int Bool ) Bool)
(assert (forall ((SIZE@0 Int)(a@0 (Array Int Int))(b@0 (Array Int Int))(c@0 (Array Int Int))(i@0 Int)(rv@0 Bool)) (=> (and (> |SIZE@0| 0) (= |i@0| 0) (= |rv@0| true)) (!inv0 |SIZE@0| |a@0| |b@0| |c@0| |i@0| |rv@0|))))
(assert (forall ((SIZE@0 Int)(a@0 (Array Int Int))(b@0 (Array Int Int))(c@0 (Array Int Int))(i@0 Int)(rv@0 Bool)) (=> (and (!inv0 |SIZE@0| |a@0| |b@0| |c@0| |i@0| |rv@0|) (not (< |i@0| |SIZE@0|)) |rv@0| (not (forall ((k@0 Int)) (=> (and (<= 0 |k@0|) (< |k@0| |SIZE@0|)) (= (select |a@0| |k@0|) (select |b@0| |k@0|)))))) false)))
(assert (forall ((SIZE@0 Int)(a@0 (Array Int Int))(b@0 (Array Int Int))(c@0 (Array Int Int))(i@0 Int)(rv@0 Bool)(c@1 (Array Int Int))(i@1 Int)(rv@1 Bool)) (=> (and (!inv0 |SIZE@0| |a@0| |b@0| |c@0| |i@0| |rv@1|) (= |c@1| (store |c@0| |i@0| (select |a@0| |i@0|))) (= |i@1| (+ |i@0| 1)) (< |i@0| |SIZE@0|) (not (= (select |a@0| |i@0|) (select |b@0| |i@0|))) (= |rv@0| false)) (!inv0 |SIZE@0| |a@0| |b@0| |c@1| |i@1| |rv@0|))))
(assert (forall ((SIZE@0 Int)(a@0 (Array Int Int))(b@0 (Array Int Int))(c@0 (Array Int Int))(i@0 Int)(rv@0 Bool)(c@1 (Array Int Int))(i@1 Int)) (=> (and (!inv0 |SIZE@0| |a@0| |b@0| |c@0| |i@0| |rv@0|) (= |c@1| (store |c@0| |i@0| (select |a@0| |i@0|))) (= |i@1| (+ |i@0| 1)) (< |i@0| |SIZE@0|) (not (not (= (select |a@0| |i@0|) (select |b@0| |i@0|))))) (!inv0 |SIZE@0| |a@0| |b@0| |c@1| |i@1| |rv@0|))))
(assert (forall ((SIZE@0 Int)(a@0 (Array Int Int))(b@0 (Array Int Int))(c@0 (Array Int Int))(i@0 Int)(rv@0 Bool)) (=> (and (!inv0 |SIZE@0| |a@0| |b@0| |c@0| |i@0| |rv@0|) (not (forall ((x@0 Int)) (=> (and (<= 0 |x@0|) (< |x@0| |SIZE@0|)) (= (select |a@0| |x@0|) (select |c@0| |x@0|))))) (not (< |i@0| |SIZE@0|)) (not |rv@0|)) false)))
(assert (forall ((SIZE@0 Int)(a@0 (Array Int Int))(b@0 (Array Int Int))(c@0 (Array Int Int))(i@0 Int)(rv@0 Bool)) (=> (and (!inv0 |SIZE@0| |a@0| |b@0| |c@0| |i@0| |rv@0|) (not (forall ((x@0 Int)) (=> (and (<= 0 |x@0|) (< |x@0| |SIZE@0|)) (= (select |a@0| |x@0|) (select |c@0| |x@0|))))) (not (< |i@0| |SIZE@0|)) |rv@0| (forall ((k@0 Int)) (=> (and (<= 0 |k@0|) (< |k@0| |SIZE@0|)) (= (select |a@0| |k@0|) (select |b@0| |k@0|))))) false)))
(check-sat)